(declare-const j Int)
(declare-const term_to_project_onto1_integralized Int)
(declare-const term_to_project_onto_integralized Int)
(declare-const term_to_project_onto0_integralized Int)
(assert (exists
         ((|cont'?1?1| Int) (|j'?2?2| Int) (K?3?3 Int) (|cont'?4?4| Int)
            (|i'?5?5| Int) (|j'?6?6| Int) (cont?7?7 Int) (n_caracter?8?8 Int)
            (i?9?9 Int))
         (and (<= (- cont?7?7) 0) (<= (- n_caracter?8?8) 0) (<= (- i?9?9) 0)
                (<= (+ i?9?9 (- n_caracter?8?8) 1) 0)
                (= (+ (- |j'?2?2|) K?3?3) 0)
                (<= (+ |cont'?1?1| (- K?3?3) (- cont?7?7)) 0)
                (<= (+ (- |cont'?1?1|) cont?7?7) 0)
                (or (and (= K?3?3 0) (= (+ (- |cont'?1?1|) cont?7?7) 0)
                           (= (- |j'?2?2|) 0))
                      (and (<= (+ (- K?3?3) 1) 0) (<= (- cont?7?7) 0)
                             (<= (+ |j'?2?2| -2) 0) (<= (- |cont'?1?1|) 0)
                             (<= (+ (- |j'?2?2|) 1) 0))) (<= (- K?3?3) 0)
                (<= (- |cont'?1?1|) 0) (<= (- |j'?2?2|) 0)
                (<= (+ (- |j'?2?2|) 2) 0)
                (= (+ |cont'?4?4| (- |cont'?1?1|)) 0)
                (= (+ |j'?6?6| (- |j'?2?2|)) 0)
                (= (+ |i'?5?5| (- i?9?9) -1) 0)
                (= (+ term_to_project_onto1_integralized
                        (- (+ |i'?5?5| (- i?9?9)))) 0)
                (= (+ term_to_project_onto0_integralized
                        (- (+ |j'?6?6| (- j)))) 0)
                (= (+ term_to_project_onto_integralized
                        (- (+ |cont'?4?4| (- cont?7?7)))) 0))))